127 133048
1 16 36 40 43 34 39 42 95 123 97 98 32 29 33 122 28 25 26 38 27 31 14 12 30 41 37 35 51 2 50 5 52 124 56 121 57 54 44 45 103 93 127 107 111 112 94 46 48 118 53 49 47 55 66 100 3 9 11 18 77 79 80 78 117 84 81 126 82 83 101 102 63 119 88 86 104 125 89 92 99 65 113 64 58 91 61 62 60 116 90 59 67 74 76 75 69 96 109 87 85 110 71 70 68 73 8 72 19 17 21 22 4 20 108 6 114 24 23 15 106 105 13 115 10 120 7 
